NAME: PointSet_Angle_20_7
TYPE: TSP
COMMENT: Points chosen discrete uniformly at random out of ${0, \ldots, 500}^2$.
DIMENSION: 20
EDGE_WEIGHT_TYPE: EUC_2D
NODE_COORD_SECTION
1 76 7
2 185 49
3 268 221
4 208 202
5 475 213
6 485 312
7 151 299
8 452 39
9 13 85
10 47 78
11 29 483
12 47 474
13 99 5
14 55 107
15 342 257
16 462 165
17 11 146
18 214 279
19 368 168
20 482 88
EOF
